(set-info :smt-lib-version 2.6)
(set-logic UF)
(set-info :source |
Generated by: David Deharbe, CLEARSY
Generated on: 2019-09-09
Generator: bxml;pog;pog2smt (Atelier B)
Application: Event-B
Target solver: CVC4, Z3
|)
(set-info :license "https://creativecommons.org/licenses/by-nc/4.0/")
(set-info :category "industrial")
(set-info :status sat)
; Prelude
(declare-sort U 0)
(declare-fun |*i| (U U) U)
(declare-fun |+i| (U U) U)
(declare-fun |-i| (U U) U)
(declare-fun idiv (U U) U)
(declare-fun |*r| (U U) U)
(declare-fun |+r| (U U) U)
(declare-fun |-r| (U U) U)
(declare-fun rdiv (U U) U)
(declare-fun modulo (U U) U)
(declare-fun |<i| (U U) Bool)
(declare-fun |<=i| (U U) Bool)
(declare-fun |>i| (U U) Bool)
(declare-fun |>=i| (U U) Bool)
(declare-fun |<r| (U U) Bool)
(declare-fun |<=r| (U U) Bool)
(declare-fun |>r| (U U) Bool)
(declare-fun |>=r| (U U) Bool)
(declare-fun iuminus (U) U)
(declare-fun ruminus (U) U)
(declare-fun TRUE () U)
(declare-fun FALSE () U)
(assert (not (= TRUE FALSE)))
(declare-fun empty () U)
(declare-fun bool (Bool) U)
(declare-fun BOOL () U)
(declare-fun INT () U)
(declare-fun INTEGER () U)
(declare-fun NAT () U)
(declare-fun NAT1 () U)
(declare-fun NATURAL () U)
(declare-fun NATURAL1 () U)
(declare-fun FLOAT () U)
(declare-fun MaxInt () U)
(declare-fun MinInt () U)
(declare-fun |STRING| () U)
(declare-fun REAL () U)
(declare-fun set_prod (U U) U)
(declare-fun set_diff (U U) U)
(declare-fun mapplet (U U) U)
(declare-fun |**i| (U U) U)
(declare-fun |**r| (U U) U)
(declare-fun |+->| (U U) U)
(declare-fun |+->>| (U U) U)
(declare-fun |-->| (U U) U)
(declare-fun |-->>| (U U) U)
(declare-fun |<->| (U U) U)
(declare-fun |>+>| (U U) U)
(declare-fun |>->| (U U) U)
(declare-fun |>+>>| (U U) U)
(declare-fun |>->>| (U U) U)
(declare-fun |->| (U U) U)
(declare-fun interval (U U) U)
(declare-fun composition (U U) U)
(declare-fun binary_inter (U U) U)
(declare-fun restriction_head (U U) U)
(declare-fun semicolon (U U) U)
(declare-fun |<+| (U U) U)
(declare-fun |<-| (U U) U)
(declare-fun domain_subtraction (U U) U)
(declare-fun domain_restriction (U U) U)
(declare-fun |><| (U U) U)
(declare-fun parallel_product (U U) U)
(declare-fun binary_union (U U) U)
(declare-fun restriction_tail (U U) U)
(declare-fun concatenate (U U) U)
(declare-fun range_restriction (U U) U)
(declare-fun range_subtraction (U U) U)
(declare-fun image (U U) U)
(declare-fun apply (U U) U)
(declare-fun prj1 (U U) U)
(declare-fun prj2 (U U) U)
(declare-fun iterate (U U) U)
(declare-fun |const| (U U) U)
(declare-fun rank (U U) U)
(declare-fun father (U U) U)
(declare-fun subtree (U U) U)
(declare-fun arity (U U) U)
(declare-fun |+f| (U U) U)
(declare-fun |-f| (U U) U)
(declare-fun |*f| (U U) U)
(declare-fun |fdiv| (U U) U)
(declare-fun tbin (U U U) U)
(declare-fun son (U U U) U)
(declare-fun mem (U U) Bool)
(declare-fun subset (U U) Bool)
(declare-fun strict_subset (U U) Bool)
(declare-fun |<=f| (U U) Bool)
(declare-fun |<f| (U U) Bool)
(declare-fun |>=f| (U U) Bool)
(declare-fun |>f| (U U) Bool)
(declare-fun imax (U) U)
(declare-fun imin (U) U)
(declare-fun rmax (U) U)
(declare-fun rmin (U) U)
(declare-fun card (U) U)
(declare-fun dom (U) U)
(declare-fun ran (U) U)
(declare-fun POW (U) U)
(declare-fun POW1 (U) U)
(declare-fun FIN (U) U)
(declare-fun FIN1 (U) U)
(declare-fun union (U) U)
(declare-fun inter (U) U)
(declare-fun seq (U) U)
(declare-fun seq1 (U) U)
(declare-fun iseq (U) U)
(declare-fun iseq1 (U) U)
(declare-fun inverse (U) U)
(declare-fun size (U) U)
(declare-fun perm (U) U)
(declare-fun first (U) U)
(declare-fun last (U) U)
(declare-fun id (U) U)
(declare-fun closure (U) U)
(declare-fun closure1 (U) U)
(declare-fun tail (U) U)
(declare-fun front (U) U)
(declare-fun reverse (U) U)
(declare-fun rev (U) U)
(declare-fun conc (U) U)
(declare-fun succ (U) U)
(declare-fun pred (U) U)
(declare-fun rel (U) U)
(declare-fun fnc (U) U)
(declare-fun real (U) U)
(declare-fun floor (U) U)
(declare-fun ceiling (U) U)
(declare-fun tree (U) U)
(declare-fun btree (U) U)
(declare-fun top (U) U)
(declare-fun sons (U) U)
(declare-fun prefix (U) U)
(declare-fun postfix (U) U)
(declare-fun sizet (U) U)
(declare-fun mirror (U) U)
(declare-fun left (U) U)
(declare-fun right (U) U)
(declare-fun infix (U) U)
(declare-fun ubin (U) U)
(declare-fun SEQ (U) U)
(declare-fun SET (U) U)
; Opaque formulas
(declare-fun e0 () U)
(declare-fun e50 () U)
(declare-fun e122 () U)
(declare-fun e124 () U)
(declare-fun e127 () U)
(declare-fun e120 () U)
(declare-fun e16 () U)
(declare-fun g_s0_1 () U)
(declare-fun g_s1_2 () U)
(declare-fun g_s10_11 () U)
(declare-fun g_s100_101 () U)
(declare-fun g_s101_102 () U)
(declare-fun g_s102_103 () U)
(declare-fun g_s103_104 () U)
(declare-fun g_s104_105 () U)
(declare-fun g_s105_106 () U)
(declare-fun g_s106_108 () U)
(declare-fun g_s107_107 () U)
(declare-fun g_s108_110 () U)
(declare-fun g_s109_109 () U)
(declare-fun g_s11_12 () U)
(declare-fun g_s110_112 () U)
(declare-fun g_s111_111 () U)
(declare-fun g_s112_113 () U)
(declare-fun g_s113_114 () U)
(declare-fun g_s114_115 () U)
(declare-fun g_s115_116 () U)
(declare-fun g_s116_117 () U)
(declare-fun g_s117_118 () U)
(declare-fun g_s118_119 () U)
(declare-fun g_s119_121 () U)
(declare-fun g_s12_13 () U)
(declare-fun g_s120_123 () U)
(declare-fun g_s121_125 () U)
(declare-fun g_s122_126 () U)
(declare-fun g_s123_128 () U)
(declare-fun g_s124_129 () U)
(declare-fun g_s125_130 () U)
(declare-fun g_s126_131 () U)
(declare-fun g_s127_132 () U)
(declare-fun g_s128_133 () U)
(declare-fun g_s129_134 () U)
(declare-fun g_s13_14 () U)
(declare-fun g_s130_135 () U)
(declare-fun g_s131_136 () U)
(declare-fun g_s132_137 () U)
(declare-fun g_s14_15 () U)
(declare-fun g_s15_17 () U)
(declare-fun g_s16_18 () U)
(declare-fun g_s17_19 () U)
(declare-fun g_s18_20 () U)
(declare-fun g_s2_3 () U)
(declare-fun g_s21_23 () U)
(declare-fun g_s22_22 () U)
(declare-fun g_s23_24 () U)
(declare-fun g_s24_25 () U)
(declare-fun g_s25_26 () U)
(declare-fun g_s26_27 () U)
(declare-fun g_s27_28 () U)
(declare-fun g_s28_29 () U)
(declare-fun g_s29_30 () U)
(declare-fun g_s3_4 () U)
(declare-fun g_s30_31 () U)
(declare-fun g_s31_32 () U)
(declare-fun g_s32_33 () U)
(declare-fun g_s33_34 () U)
(declare-fun g_s34_35 () U)
(declare-fun g_s35_37 () U)
(declare-fun g_s36_36 () U)
(declare-fun g_s37_38 () U)
(declare-fun g_s38_39 () U)
(declare-fun g_s39_40 () U)
(declare-fun g_s4_5 () U)
(declare-fun g_s40_41 () U)
(declare-fun g_s41_42 () U)
(declare-fun g_s42_43 () U)
(declare-fun g_s43_44 () U)
(declare-fun g_s44_45 () U)
(declare-fun g_s45_46 () U)
(declare-fun g_s46_47 () U)
(declare-fun g_s47_48 () U)
(declare-fun g_s48_51 () U)
(declare-fun g_s49_49 () U)
(declare-fun g_s5_6 () U)
(declare-fun g_s50_52 () U)
(declare-fun g_s51_53 () U)
(declare-fun g_s52_54 () U)
(declare-fun g_s53_55 () U)
(declare-fun g_s54_57 () U)
(declare-fun g_s55_56 () U)
(declare-fun g_s56_58 () U)
(declare-fun g_s57_59 () U)
(declare-fun g_s58_60 () U)
(declare-fun g_s59_61 () U)
(declare-fun g_s6_7 () U)
(declare-fun g_s60_62 () U)
(declare-fun g_s61_63 () U)
(declare-fun g_s62_64 () U)
(declare-fun g_s63_65 () U)
(declare-fun g_s64_66 () U)
(declare-fun g_s65_67 () U)
(declare-fun g_s66_68 () U)
(declare-fun g_s67_69 () U)
(declare-fun g_s68_70 () U)
(declare-fun g_s69_71 () U)
(declare-fun g_s7_8 () U)
(declare-fun g_s70_72 () U)
(declare-fun g_s71_73 () U)
(declare-fun g_s72_74 () U)
(declare-fun g_s73_75 () U)
(declare-fun g_s75_76 () U)
(declare-fun g_s76_77 () U)
(declare-fun g_s77_78 () U)
(declare-fun g_s78_79 () U)
(declare-fun g_s79_80 () U)
(declare-fun g_s8_9 () U)
(declare-fun g_s80_81 () U)
(declare-fun g_s81_82 () U)
(declare-fun g_s82_83 () U)
(declare-fun g_s83_84 () U)
(declare-fun g_s84_85 () U)
(declare-fun g_s85_86 () U)
(declare-fun g_s86_88 () U)
(declare-fun g_s87_87 () U)
(declare-fun g_s88_89 () U)
(declare-fun g_s89_90 () U)
(declare-fun g_s9_10 () U)
(declare-fun g_s90_91 () U)
(declare-fun g_s91_92 () U)
(declare-fun g_s92_94 () U)
(declare-fun g_s93_93 () U)
(declare-fun g_s94_95 () U)
(declare-fun g_s95_96 () U)
(declare-fun g_s96_97 () U)
(declare-fun g_s97_99 () U)
(declare-fun g_s98_98 () U)
(declare-fun g_s99_100 () U)
(declare-fun e21 () U)
; Defines
(define-fun |def_B definitions| () Bool (and (= NAT (interval e0 MaxInt)) (= INT (interval MinInt MaxInt))))
(define-fun |def_ctx| () Bool (and (= g_s0_1 (SET (mapplet g_s3_4 (mapplet g_s2_3 g_s1_2)))) (not (= g_s4_5 empty)) (not (= g_s5_6 empty)) (not (= g_s6_7 empty)) (not (= g_s7_8 empty)) (not (= g_s8_9 empty)) (not (= g_s9_10 empty)) (not (= g_s10_11 empty)) (not (= g_s11_12 empty)) (not (= g_s12_13 empty)) (not (= g_s13_14 empty)) (mem g_s14_15 NAT) (= g_s14_15 e16) (mem g_s15_17 NAT1) (|<i| g_s15_17 g_s14_15) (mem g_s16_18 NAT) (= g_s16_18 e16) (mem g_s17_19 NAT1) (|<i| g_s17_19 g_s16_18) (subset g_s18_20 (seq INTEGER)) (= g_s18_20 e21) (subset g_s21_23 g_s22_22) (= (SET (mapplet g_s28_29 (mapplet g_s27_28 (mapplet g_s26_27 (mapplet g_s25_26 (mapplet g_s24_25 g_s23_24)))))) g_s21_23) (= g_s29_30 NATURAL) (subset g_s30_31 INTEGER) (subset g_s29_30 g_s30_31) (mem g_s31_32 g_s30_31) (not (mem g_s31_32 g_s29_30)) (subset g_s32_33 g_s6_7) (mem g_s33_34 g_s6_7) (not (mem g_s33_34 g_s32_33)) (mem g_s34_35 g_s32_33) (mem g_s35_37 (|>->>| (interval e0 g_s36_36) g_s6_7)) (= g_s37_38 NATURAL) (= g_s38_39 NATURAL1) (= g_s39_40 e0) (subset g_s40_41 g_s12_13) (mem g_s40_41 (FIN g_s12_13)) (mem g_s41_42 g_s40_41) (mem g_s42_43 g_s12_13) (not (mem g_s42_43 g_s40_41)) (mem g_s43_44 (perm g_s40_41)) (mem g_s44_45 NAT1) (= (card g_s40_41) (|*i| g_s44_45 g_s17_19)) (subset g_s45_46 g_s5_6) (mem g_s46_47 g_s5_6) (not (mem g_s46_47 g_s45_46)) (mem g_s47_48 g_s45_46) (mem g_s48_51 (|>->>| (interval e50 g_s49_49) g_s45_46)) (mem g_s50_52 (|>->>| (interval e0 g_s49_49) g_s5_6)) (subset g_s51_53 g_s4_5) (mem g_s52_54 g_s4_5) (not (mem g_s52_54 g_s51_53)) (mem g_s53_55 g_s51_53) (mem g_s54_57 (|>->>| (interval e0 g_s55_56) g_s4_5)) (= g_s56_58 (interval e0 (|-i| g_s16_18 e50))) (mem g_s57_59 (|-->>| g_s32_33 g_s51_53)) (mem g_s58_60 (|-->| g_s32_33 g_s56_58)) (mem g_s59_61 (|>->>| g_s32_33 (set_prod g_s51_53 g_s56_58))) (= g_s59_61 (|><| g_s57_59 g_s58_60)) (subset g_s60_62 g_s7_8) (mem g_s61_63 g_s60_62) (mem g_s62_64 g_s7_8) (not (mem g_s62_64 g_s60_62)) (subset g_s63_65 g_s13_14) (mem g_s64_66 g_s13_14) (not (mem g_s64_66 g_s63_65)) (mem g_s65_67 g_s63_65) (mem g_s66_68 (perm g_s63_65)) (subset g_s67_69 NAT) (subset g_s68_70 g_s67_69) (mem g_s69_71 g_s67_69) (mem g_s69_71 g_s68_70) (mem g_s70_72 g_s67_69) (not (mem g_s70_72 g_s68_70)) (mem g_s71_73 (|+->| NAT g_s67_69)) (mem g_s71_73 (perm g_s68_70)) (subset g_s72_74 g_s67_69) (subset g_s73_75 g_s68_70) (mem g_s69_71 g_s73_75) (mem g_s69_71 g_s72_74) (forall ((l_s74 U)) (=> (mem l_s74 g_s72_74) (mem (|+i| e50 l_s74) g_s67_69))) (forall ((l_s74 U)) (=> (mem l_s74 g_s73_75) (mem (|+i| e50 l_s74) g_s68_70))) (= g_s73_75 (binary_inter g_s72_74 g_s68_70)) (= g_s75_76 INTEGER) (= g_s76_77 NATURAL) (subset g_s76_77 g_s75_76) (mem g_s77_78 g_s75_76) (not (mem g_s77_78 g_s76_77)) (= g_s78_79 INTEGER) (= g_s79_80 INTEGER) (mem g_s80_81 NAT) (subset g_s81_82 g_s8_9) (mem g_s82_83 g_s8_9) (not (mem g_s82_83 g_s81_82)) (mem g_s83_84 g_s81_82) (mem g_s84_85 (|>->>| (interval e0 g_s80_81) g_s8_9)) (= g_s85_86 e0) (= g_s86_88 (interval e50 g_s87_87)) (= g_s88_89 (interval e0 g_s87_87)) (subset g_s86_88 g_s88_89) (not (= g_s86_88 empty)) (subset g_s89_90 g_s9_10) (mem g_s90_91 g_s9_10) (not (mem g_s90_91 g_s89_90)) (mem g_s91_92 g_s89_90) (mem g_s92_94 (|>->>| (interval e50 g_s93_93) g_s89_90)) (subset g_s94_95 g_s10_11) (mem g_s95_96 g_s10_11) (not (mem g_s95_96 g_s94_95)) (mem g_s96_97 g_s94_95) (mem g_s97_99 (|>->>| (interval e50 g_s98_98) g_s94_95)) (subset g_s99_100 NATURAL) (= g_s99_100 (interval e0 g_s100_101)) (= g_s101_102 (interval e50 g_s100_101)) (subset g_s101_102 g_s99_100) (mem g_s102_103 g_s99_100) (not (mem g_s102_103 g_s101_102)) (mem g_s103_104 g_s101_102) (mem g_s104_105 (|>->>| (interval e50 g_s100_101) g_s101_102)) (mem g_s105_106 g_s11_12) (mem g_s106_108 (|>->>| (interval e50 g_s107_107) g_s11_12)) (= g_s108_110 (interval e0 g_s109_109)) (= g_s110_112 (interval e0 g_s111_111)) (mem g_s112_113 NATURAL1) (= g_s112_113 (|+i| g_s113_114 e50)) (= g_s114_115 (interval e0 g_s112_113)) (mem g_s115_116 NATURAL1) (= g_s115_116 (|+i| g_s116_117 e50)) (= g_s117_118 (interval e0 g_s115_116)) (mem g_s118_119 NATURAL1) (|>=i| g_s118_119 e120) (mem g_s119_121 NATURAL1) (= g_s119_121 e122) (mem g_s120_123 NATURAL1) (= g_s120_123 e124) (|<=i| g_s120_123 g_s121_125) (|<=i| g_s119_121 g_s121_125) (mem g_s122_126 NATURAL1) (= g_s122_126 e127) (mem g_s123_128 NATURAL1) (|>=i| g_s123_128 e122) (mem g_s124_129 NATURAL1) (|>=i| g_s124_129 e122) (mem g_s125_130 NATURAL1) (|>=i| g_s125_130 e124) (mem g_s126_131 NATURAL1) (mem g_s127_132 NATURAL1) (|>=i| g_s127_132 e124) (mem g_s128_133 NATURAL1) (|>=i| g_s128_133 e124) (|<=i| g_s124_129 g_s123_128) (|<=i| g_s127_132 g_s123_128) (|<=i| g_s128_133 g_s123_128) (|<=i| g_s125_130 g_s123_128) (|<=i| g_s126_131 g_s123_128)))
(define-fun |def_seext| () Bool true)
(define-fun |def_lprp| () Bool (and (mem g_s129_134 g_s108_110) (mem g_s130_135 g_s108_110) (mem g_s131_136 g_s108_110)))
(define-fun |def_inprp| () Bool true)
(define-fun |def_inext| () Bool true)
(define-fun |def_inv| () Bool  (mem g_s132_137 (|-->| g_s108_110 BOOL)))
(define-fun |def_ass| () Bool true)
(define-fun |def_cst| () Bool true)
(define-fun |def_sets| () Bool true)
; PO group 0 
(assert |def_B definitions|)
(assert |def_ctx|)
(assert |def_cst|)
(assert |def_lprp|)
(assert |def_inprp|)
(assert |def_inext|)
(assert |def_seext|)
; PO 1 in group 0
(assert (not (mem (set_prod g_s108_110 (SET FALSE)) (|-->| g_s108_110 BOOL))))
(check-sat)
(exit)